data;

param num_top:=6;

#nodes and edges of the physical network
param n := 10;

set E := (1,2) (1,3) (1,7) (2,4) (2,7) (3,5) (4,8) (5,6) (5,7) (6,7) (6,9) (7,8) (7,9) (8,10) (9,10) ;

#nodes and edges of the virtual networks
set Nl[1] := 1 4 7 2 ;
set Nl[2] := 2 8 4 3 ;
set Nl[3] := 3 5 8 1 ;
set Nl[4] := 3 1 10 5 ;
set Nl[5] := 3 8 9 2 ;
set Nl[6] := 10 2 1 5 ;

set El[1] := (1,4) (4,7) (2,7) (1,2) (2,4) (1,7) ;
set El[2] := (2,8) (4,8) (3,4) (2,3) (3,8) (2,4) ;
set El[3] := (3,5) (5,8) (1,8) (1,3) (1,5) (3,8) ;
set El[4] := (1,3) (1,10) (5,10) (3,5) (1,5) (3,10) ;
set El[5] := (3,8) (8,9) (2,9) (2,3) (3,9) (2,8) ;
set El[6] := (2,10) (1,2) (1,5) (5,10) (1,10) (2,5) ;
